n = 10;

m = 16;

79	40	76	1	59	80	4	7	60	13 
17	27	54	45	78	42	4	45	5	1 
64	51	7	56	17	60	24	57	41	3 
12	59	53	71	26	15	2	21	10	32
77	17	64	69	69	73	18	9	79	73 
41	7	17	53	57	31	21	37	63	50 
61	27	37	2	43	44	73	57	46	77 
69	19	35	78	32	8	37	15	64	72
69	29	28	17	21	10	67	31	38	78 
52	73	68	9	40	73	69	33	34	80 
58	61	10	21	40	24	65	13	67	23 
45	6	73	14	3	33	35	29	41	8
5	69	33	25	5	10	6	41	37	24 
18	64	7	54	60	37	55	49	64	74 
7	11	50	27	77	33	53	2	2	56 
77	17	64	69	69	73	18	9	79	73 
